rcpsp/heur_output_bi_constraints/Log=1/heurj120.txt
encoding rcpsp/j120.sm/j12057_3.sm nv: 5170624 nc: 10674125 enctime: 91.04
encoding rcpsp/j120.sm/j12057_3.sm nv: 1860528 nc: 3837749 enctime: 25.27
c File: j12057_3.smnaivebi1.wcnf
c timeout
c final solution cost: 275
c CPU time: 72.132344
s UNKNOWN

c File: j12057_3.smbi1.wcnf
c timeout
c final solution cost: 197
c CPU time: 63.256286
s UNKNOWN


rcpsp/heur_output_bi_constraints/Log=1/heurj120.txt
encoding rcpsp/j120.sm/j12057_4.sm nv: 4755366 nc: 9850813 enctime: 88.59
encoding rcpsp/j120.sm/j12057_4.sm nv: 1969394 nc: 4076681 enctime: 27.33
c File: j12057_4.smnaivebi1.wcnf
c timeout
c final solution cost: 389
c CPU time: 72.040040
s UNKNOWN

c File: j12057_4.smbi1.wcnf
c timeout
c final solution cost: 208
c CPU time: 63.563219
s UNKNOWN


rcpsp/heur_output_bi_constraints/Log=1/heurj120.txt
encoding rcpsp/j120.sm/j12057_5.sm nv: 4881106 nc: 10067164 enctime: 88.88
encoding rcpsp/j120.sm/j12057_5.sm nv: 1719730 nc: 3543964 enctime: 23.46
c File: j12057_5.smnaivebi1.wcnf
c timeout
c final solution cost: 254
c CPU time: 71.605916
s UNKNOWN

c File: j12057_5.smbi1.wcnf
c timeout
c final solution cost: 187
c CPU time: 63.044991
s UNKNOWN


rcpsp/heur_output_bi_constraints/Log=1/heurj120.txt
encoding rcpsp/j120.sm/j12057_6.sm nv: 4167891 nc: 8614254 enctime: 77.11
encoding rcpsp/j120.sm/j12057_6.sm nv: 1766610 nc: 3648744 enctime: 24.26
c File: j12057_6.smnaivebi1.wcnf
c timeout
c final solution cost: 209
c CPU time: 70.286165
s UNKNOWN

c File: j12057_6.smbi1.wcnf
c timeout
c final solution cost: 206
c CPU time: 63.250061
s UNKNOWN


rcpsp/heur_output_bi_constraints/Log=1/heurj120.txt
encoding rcpsp/j120.sm/j12057_7.sm nv: 5048744 nc: 10402844 enctime: 92.21
encoding rcpsp/j120.sm/j12057_7.sm nv: 1723224 nc: 3547644 enctime: 23.91
c File: j12057_7.smnaivebi1.wcnf
c timeout
c final solution cost: 518
c CPU time: 71.899369
s UNKNOWN

c File: j12057_7.smbi1.wcnf
c timeout
c final solution cost: 178
c CPU time: 63.015351
s UNKNOWN


rcpsp/heur_output_bi_constraints/Log=1/heurj120.txt
encoding rcpsp/j120.sm/j12057_8.sm nv: 4943360 nc: 10160058 enctime: 86.75
encoding rcpsp/j120.sm/j12057_8.sm nv: 1799692 nc: 3696084 enctime: 24.40
c File: j12057_8.smnaivebi1.wcnf
c timeout
c final solution cost: 193
c CPU time: 71.599297
s UNKNOWN

c File: j12057_8.smbi1.wcnf
c timeout
c final solution cost: 166
c CPU time: 63.088026
s UNKNOWN


rcpsp/heur_output_bi_constraints/Log=1/heurj120.txt
encoding rcpsp/j120.sm/j12057_9.sm nv: 4837968 nc: 9960566 enctime: 87.88
encoding rcpsp/j120.sm/j12057_9.sm nv: 1620122 nc: 3332648 enctime: 22.71
c File: j12057_9.smnaivebi1.wcnf
c timeout
c final solution cost: 246
c CPU time: 71.475371
s UNKNOWN

c File: j12057_9.smbi1.wcnf
c timeout
c final solution cost: 182
c CPU time: 62.808352
s UNKNOWN


rcpsp/heur_output_bi_constraints/Log=1/heurj120.txt
encoding rcpsp/j120.sm/j1205_7.sm nv: 1088362 nc: 2447651 enctime: 28.35
encoding rcpsp/j120.sm/j1205_7.sm nv: 136248 nc: 302753 enctime: 2.17
c File: j1205_7.smnaivebi1.wcnf
c timeout
c final solution cost: 47
c CPU time: 65.016248
s UNKNOWN

c File: j1205_7.smbi1.wcnf
c timeout
c final solution cost: 47
c CPU time: 60.253991
s UNKNOWN


rcpsp/heur_output_bi_constraints/Log=1/heurj120.txt
encoding rcpsp/j120.sm/j12058_10.sm nv: 5573358 nc: 11395493 enctime: 95.35
encoding rcpsp/j120.sm/j12058_10.sm nv: 1699740 nc: 3472459 enctime: 23.72
c File: j12058_10.smnaivebi1.wcnf
c timeout
c final solution cost: 158
c CPU time: 71.943123
s UNKNOWN

c File: j12058_10.smbi1.wcnf
c timeout
c final solution cost: 140
c CPU time: 62.772130
s UNKNOWN


rcpsp/heur_output_bi_constraints/Log=1/heurj120.txt
encoding rcpsp/j120.sm/j12058_1.sm nv: 5662594 nc: 11592540 enctime: 98.45
encoding rcpsp/j120.sm/j12058_1.sm nv: 1731464 nc: 3541600 enctime: 24.29
c File: j12058_1.smnaivebi1.wcnf
c timeout
c final solution cost: 236
c CPU time: 72.448729
s UNKNOWN

c File: j12058_1.smbi1.wcnf
c timeout
c final solution cost: 148
c CPU time: 62.865120
s UNKNOWN


rcpsp/heur_output_bi_constraints/Log=1/heurj120.txt
encoding rcpsp/j120.sm/j12058_2.sm nv: 7209360 nc: 14712368 enctime: 122.27
encoding rcpsp/j120.sm/j12058_2.sm nv: 1823544 nc: 3717724 enctime: 26.32
c File: j12058_2.smnaivebi1.wcnf
c timeout
c final solution cost: 597
c CPU time: 74.971728
s UNKNOWN

c File: j12058_2.smbi1.wcnf
c timeout
c final solution cost: 127
c CPU time: 62.929120
s UNKNOWN


rcpsp/heur_output_bi_constraints/Log=1/heurj120.txt
encoding rcpsp/j120.sm/j12058_3.sm nv: 6788664 nc: 13821821 enctime: 114.67
encoding rcpsp/j120.sm/j12058_3.sm nv: 1729188 nc: 3517535 enctime: 21.42
c File: j12058_3.smnaivebi1.wcnf
c timeout
c final solution cost: 330
c CPU time: 73.674584
s UNKNOWN

c File: j12058_3.smbi1.wcnf
c timeout
c final solution cost: 123
c CPU time: 62.695366
s UNKNOWN


rcpsp/heur_output_bi_constraints/Log=1/heurj120.txt
encoding rcpsp/j120.sm/j12058_4.sm nv: 6286245 nc: 12886740 enctime: 108.12
encoding rcpsp/j120.sm/j12058_4.sm nv: 1817046 nc: 3721400 enctime: 25.12
c File: j12058_4.smnaivebi1.wcnf
c timeout
c final solution cost: 416
c CPU time: 74.685565
s UNKNOWN

c File: j12058_4.smbi1.wcnf
c timeout
c final solution cost: 154
c CPU time: 63.001907
s UNKNOWN


rcpsp/heur_output_bi_constraints/Log=1/heurj120.txt
encoding rcpsp/j120.sm/j12058_5.sm nv: 8504925 nc: 17336327 enctime: 143.41
encoding rcpsp/j120.sm/j12058_5.sm nv: 1891305 nc: 3851103 enctime: 23.99
c File: j12058_5.smnaivebi1.wcnf
c timeout
c final solution cost: 570
c CPU time: 77.615790
s UNKNOWN

c File: j12058_5.smbi1.wcnf
c timeout
c final solution cost: 122
c CPU time: 62.925439
s UNKNOWN


rcpsp/heur_output_bi_constraints/Log=1/heurj120.txt
encoding rcpsp/j120.sm/j12058_6.sm nv: 6081808 nc: 12424034 enctime: 103.75
encoding rcpsp/j120.sm/j12058_6.sm nv: 1774256 nc: 3621428 enctime: 24.62
c File: j12058_6.smnaivebi1.wcnf
c timeout
c final solution cost: 153
c CPU time: 72.887032
s UNKNOWN

c File: j12058_6.smbi1.wcnf
c timeout
c final solution cost: 147
c CPU time: 62.842681
s UNKNOWN


rcpsp/heur_output_bi_constraints/Log=1/heurj120.txt
encoding rcpsp/j120.sm/j12058_7.sm nv: 7668558 nc: 15699870 enctime: 132.51
encoding rcpsp/j120.sm/j12058_7.sm nv: 1974290 nc: 4037882 enctime: 28.35
c File: j12058_7.smnaivebi1.wcnf
c timeout
c final solution cost: 622
c CPU time: 76.969376
s UNKNOWN

c File: j12058_7.smbi1.wcnf
c timeout
c final solution cost: 153
c CPU time: 63.177233
s UNKNOWN


rcpsp/heur_output_bi_constraints/Log=1/heurj120.txt
encoding rcpsp/j120.sm/j12058_8.sm nv: 6781110 nc: 13865282 enctime: 117.04
encoding rcpsp/j120.sm/j12058_8.sm nv: 1808955 nc: 3695125 enctime: 22.51
c File: j12058_8.smnaivebi1.wcnf
c timeout
c final solution cost: 301
c CPU time: 74.376231
s UNKNOWN

c File: j12058_8.smbi1.wcnf
c timeout
c final solution cost: 137
c CPU time: 62.864274
s UNKNOWN


rcpsp/heur_output_bi_constraints/Log=1/heurj120.txt
encoding rcpsp/j120.sm/j12058_9.sm nv: 6677930 nc: 13636479 enctime: 108.69
encoding rcpsp/j120.sm/j12058_9.sm nv: 1757350 nc: 3585109 enctime: 20.99
c File: j12058_9.smnaivebi1.wcnf
c timeout
c final solution cost: 473
c CPU time: 73.622715
s UNKNOWN

c File: j12058_9.smbi1.wcnf
c timeout
c final solution cost: 137
c CPU time: 62.717272
s UNKNOWN


rcpsp/heur_output_bi_constraints/Log=1/heurj120.txt
encoding rcpsp/j120.sm/j1205_8.sm nv: 1011172 nc: 2288291 enctime: 26.24
encoding rcpsp/j120.sm/j1205_8.sm nv: 122796 nc: 274209 enctime: 1.92
c File: j1205_8.smnaivebi1.wcnf
c optimal
c final solution cost: 52
c CPU time: 7.726691
s OPTIMUM FOUND

c File: j1205_8.smbi1.wcnf
c optimal
c final solution cost: 52
c CPU time: 0.382022
s OPTIMUM FOUND


rcpsp/heur_output_bi_constraints/Log=1/heurj120.txt
encoding rcpsp/j120.sm/j12059_10.sm nv: 5526962 nc: 11278144 enctime: 87.22
encoding rcpsp/j120.sm/j12059_10.sm nv: 1560770 nc: 3182032 enctime: 18.07
c File: j12059_10.smnaivebi1.wcnf
c timeout
c final solution cost: 139
c CPU time: 71.315891
s UNKNOWN

c File: j12059_10.smbi1.wcnf
c timeout
c final solution cost: 136
c CPU time: 62.437085
s UNKNOWN


rcpsp/heur_output_bi_constraints/Log=1/heurj120.txt
encoding rcpsp/j120.sm/j12059_1.sm nv: 9186912 nc: 18631626 enctime: 140.07
encoding rcpsp/j120.sm/j12059_1.sm nv: 1831914 nc: 3711272 enctime: 22.12
c File: j12059_1.smnaivebi1.wcnf
c timeout
c final solution cost: 106
c CPU time: 77.753507
s UNKNOWN

c File: j12059_1.smbi1.wcnf
c timeout
c final solution cost: 97
c CPU time: 62.667591
s UNKNOWN


rcpsp/heur_output_bi_constraints/Log=1/heurj120.txt
encoding rcpsp/j120.sm/j12059_2.sm nv: 8010728 nc: 16254389 enctime: 120.60
encoding rcpsp/j120.sm/j12059_2.sm nv: 1782952 nc: 3614325 enctime: 21.23
c File: j12059_2.smnaivebi1.wcnf
c timeout
c final solution cost: 110
c CPU time: 74.817487
s UNKNOWN

c File: j12059_2.smbi1.wcnf
c timeout
c final solution cost: 106
c CPU time: 62.638826
s UNKNOWN


rcpsp/heur_output_bi_constraints/Log=1/heurj120.txt
encoding rcpsp/j120.sm/j12059_3.sm nv: 8069206 nc: 16353797 enctime: 117.85
encoding rcpsp/j120.sm/j12059_3.sm nv: 1712436 nc: 3467287 enctime: 19.77
c File: j12059_3.smnaivebi1.wcnf
c timeout
c final solution cost: 158
c CPU time: 74.353681
s UNKNOWN

c File: j12059_3.smbi1.wcnf
c timeout
c final solution cost: 100
c CPU time: 62.467142
s UNKNOWN


rcpsp/heur_output_bi_constraints/Log=1/heurj120.txt
encoding rcpsp/j120.sm/j12059_4.sm nv: 6889008 nc: 13988496 enctime: 101.73
encoding rcpsp/j120.sm/j12059_4.sm nv: 1625624 nc: 3297826 enctime: 21.26
c File: j12059_4.smnaivebi1.wcnf
c timeout
c final solution cost: 224
c CPU time: 72.917153
s UNKNOWN

c File: j12059_4.smbi1.wcnf
c timeout
c final solution cost: 105
c CPU time: 62.382563
s UNKNOWN


rcpsp/heur_output_bi_constraints/Log=1/heurj120.txt
encoding rcpsp/j120.sm/j12059_5.sm nv: 8335230 nc: 16917186 enctime: 123.12
encoding rcpsp/j120.sm/j12059_5.sm nv: 1656850 nc: 3359210 enctime: 19.26
c File: j12059_5.smnaivebi1.wcnf
c timeout
c final solution cost: 609
c CPU time: 75.489560
s UNKNOWN

c File: j12059_5.smbi1.wcnf
c timeout
c final solution cost: 102
c CPU time: 62.400761
s UNKNOWN


rcpsp/heur_output_bi_constraints/Log=1/heurj120.txt
encoding rcpsp/j120.sm/j12059_6.sm nv: 8401932 nc: 17102273 enctime: 126.99
encoding rcpsp/j120.sm/j12059_6.sm nv: 1891344 nc: 3845891 enctime: 21.77
c File: j12059_6.smnaivebi1.wcnf
c timeout
c final solution cost: 171
c CPU time: 76.543315
s UNKNOWN

c File: j12059_6.smbi1.wcnf
c timeout
c final solution cost: 112
c CPU time: 62.785372
s UNKNOWN


rcpsp/heur_output_bi_constraints/Log=1/heurj120.txt
encoding rcpsp/j120.sm/j12059_7.sm nv: 7304904 nc: 14864673 enctime: 107.97
encoding rcpsp/j120.sm/j12059_7.sm nv: 1747315 nc: 3552295 enctime: 22.01
c File: j12059_7.smnaivebi1.wcnf
c timeout
c final solution cost: 148
c CPU time: 73.706725
s UNKNOWN

c File: j12059_7.smbi1.wcnf
c timeout
c final solution cost: 115
c CPU time: 62.549131
s UNKNOWN


rcpsp/heur_output_bi_constraints/Log=1/heurj120.txt
encoding rcpsp/j120.sm/j12059_8.sm nv: 8168840 nc: 16619881 enctime: 120.32
encoding rcpsp/j120.sm/j12059_8.sm nv: 1621755 nc: 3295721 enctime: 18.32
c File: j12059_8.smnaivebi1.wcnf
c timeout
c final solution cost: 149
c CPU time: 75.074127
s UNKNOWN

c File: j12059_8.smbi1.wcnf
c timeout
c final solution cost: 111
c CPU time: 62.327850
s UNKNOWN


rcpsp/heur_output_bi_constraints/Log=1/heurj120.txt
encoding rcpsp/j120.sm/j12059_9.sm nv: 6807520 nc: 13853838 enctime: 100.95
encoding rcpsp/j120.sm/j12059_9.sm nv: 1669360 nc: 3394080 enctime: 21.12
c File: j12059_9.smnaivebi1.wcnf
c timeout
c final solution cost: 570
c CPU time: 72.713022
s UNKNOWN

c File: j12059_9.smbi1.wcnf
c timeout
c final solution cost: 117
c CPU time: 62.412960
s UNKNOWN


rcpsp/heur_output_bi_constraints/Log=1/heurj120.txt
encoding rcpsp/j120.sm/j1205_9.sm nv: 1003904 nc: 2297227 enctime: 25.30
encoding rcpsp/j120.sm/j1205_9.sm nv: 154560 nc: 349852 enctime: 2.22
c File: j1205_9.smnaivebi1.wcnf
c timeout
c final solution cost: 66
c CPU time: 64.565218
s UNKNOWN

c File: j1205_9.smbi1.wcnf
c timeout
c final solution cost: 67
c CPU time: 60.277576
s UNKNOWN


rcpsp/heur_output_bi_constraints/Log=1/heurj120.txt
encoding rcpsp/j120.sm/j12060_10.sm nv: 9027135 nc: 18216695 enctime: 122.92
encoding rcpsp/j120.sm/j12060_10.sm nv: 1589393 nc: 3204323 enctime: 18.27
c File: j12060_10.smnaivebi1.wcnf
c timeout
c final solution cost: 125
c CPU time: 75.872457
s UNKNOWN

c File: j12060_10.smbi1.wcnf
c timeout
c final solution cost: 75
c CPU time: 62.226008
s UNKNOWN


rcpsp/heur_output_bi_constraints/Log=1/heurj120.txt
encoding rcpsp/j120.sm/j12060_1.sm nv: 9954882 nc: 20145805 enctime: 138.35
encoding rcpsp/j120.sm/j12060_1.sm nv: 1709577 nc: 3455725 enctime: 19.86
c File: j12060_1.smnaivebi1.wcnf
c timeout
c final solution cost: 87
c CPU time: 77.426482
s UNKNOWN

c File: j12060_1.smbi1.wcnf
c timeout
c final solution cost: 84
c CPU time: 62.398508
s UNKNOWN


rcpsp/heur_output_bi_constraints/Log=1/heurj120.txt
encoding rcpsp/j120.sm/j12060_2.sm nv: 9997064 nc: 20181026 enctime: 138.28
encoding rcpsp/j120.sm/j12060_2.sm nv: 1606671 nc: 3239970 enctime: 18.96
c File: j12060_2.smnaivebi1.wcnf
c timeout
c final solution cost: 82
c CPU time: 76.891867
s UNKNOWN

c File: j12060_2.smbi1.wcnf
c timeout
c final solution cost: 74
c CPU time: 62.232451
s UNKNOWN


rcpsp/heur_output_bi_constraints/Log=1/heurj120.txt
encoding rcpsp/j120.sm/j12060_3.sm nv: 8156610 nc: 16503959 enctime: 114.60
encoding rcpsp/j120.sm/j12060_3.sm nv: 1536948 nc: 3106533 enctime: 17.21
c File: j12060_3.smnaivebi1.wcnf
c timeout
c final solution cost: 459
c CPU time: 74.285310
s UNKNOWN

c File: j12060_3.smbi1.wcnf
c timeout
c final solution cost: 89
c CPU time: 62.155467
s UNKNOWN


rcpsp/heur_output_bi_constraints/Log=1/heurj120.txt
encoding rcpsp/j120.sm/j12060_4.sm nv: 8117291 nc: 16463376 enctime: 116.42
encoding rcpsp/j120.sm/j12060_4.sm nv: 1656590 nc: 3356412 enctime: 18.80
c File: j12060_4.smnaivebi1.wcnf
c timeout
c final solution cost: 101
c CPU time: 74.444217
s UNKNOWN

c File: j12060_4.smbi1.wcnf
c timeout
c final solution cost: 98
c CPU time: 62.368649
s UNKNOWN


rcpsp/heur_output_bi_constraints/Log=1/heurj120.txt
encoding rcpsp/j120.sm/j12060_5.sm nv: 8378664 nc: 16985629 enctime: 117.64
encoding rcpsp/j120.sm/j12060_5.sm nv: 1738968 nc: 3521773 enctime: 23.14
c File: j12060_5.smnaivebi1.wcnf
c timeout
c final solution cost: 579
c CPU time: 74.769928
s UNKNOWN

c File: j12060_5.smbi1.wcnf
c timeout
c final solution cost: 106
c CPU time: 62.475789
s UNKNOWN


rcpsp/heur_output_bi_constraints/Log=1/heurj120.txt
encoding rcpsp/j120.sm/j12060_6.sm nv: 9750855 nc: 19797730 enctime: 140.32
encoding rcpsp/j120.sm/j12060_6.sm nv: 1784199 nc: 3618466 enctime: 20.52
c File: j12060_6.smnaivebi1.wcnf
c timeout
c final solution cost: 107
c CPU time: 77.979765
s UNKNOWN

c File: j12060_6.smbi1.wcnf
c timeout
c final solution cost: 100
c CPU time: 62.485378
s UNKNOWN


rcpsp/heur_output_bi_constraints/Log=1/heurj120.txt
encoding rcpsp/j120.sm/j12060_7.sm nv: 8520096 nc: 17245601 enctime: 121.12
encoding rcpsp/j120.sm/j12060_7.sm nv: 1542902 nc: 3119517 enctime: 17.84
c File: j12060_7.smnaivebi1.wcnf
c timeout
c final solution cost: 160
c CPU time: 75.534477
s UNKNOWN

c File: j12060_7.smbi1.wcnf
c timeout
c final solution cost: 87
c CPU time: 62.183708
s UNKNOWN


rcpsp/heur_output_bi_constraints/Log=1/heurj120.txt
encoding rcpsp/j120.sm/j12060_8.sm nv: 11050350 nc: 22357315 enctime: 155.40
encoding rcpsp/j120.sm/j12060_8.sm nv: 1969845 nc: 3981412 enctime: 22.79
c File: j12060_8.smnaivebi1.wcnf
c timeout
c final solution cost: 98
c CPU time: 79.263620
s UNKNOWN

c File: j12060_8.smbi1.wcnf
c timeout
c final solution cost: 88
c CPU time: 62.726841
s UNKNOWN


rcpsp/heur_output_bi_constraints/Log=1/heurj120.txt
encoding rcpsp/j120.sm/j12060_9.sm nv: 11621928 nc: 23483399 enctime: 163.24
encoding rcpsp/j120.sm/j12060_9.sm nv: 1769664 nc: 3571589 enctime: 20.65
c File: j12060_9.smnaivebi1.wcnf
c timeout
c final solution cost: 427
c CPU time: 79.861175
s UNKNOWN

c File: j12060_9.smbi1.wcnf
c timeout
c final solution cost: 82
c CPU time: 62.448442
s UNKNOWN


